p cnf 225 293
-1 176 193 194 -2 216 207 -209 0 
-3 33 34 35 37 41 42 78 83 208 -209 0 
-4 -5 90 92 144 150 -6 -2 216 207 -209 0 
-7 209 0 
-8 13 86 95 128 136 137 147 191 203 -9 23 39 69 70 73 96 108 154 185 189 197 202 207 -209 0 
-10 61 64 67 135 139 143 184 207 -209 0 
-11 -12 -13 8 86 95 128 136 137 147 191 203 -7 207 -209 0 
-14 -15 208 -209 0 
-16 21 52 177 198 209 0 
-17 208 -209 0 
-18 103 121 130 165 209 0 
-19 134 210 -209 0 
-19 134 211 -209 0 
-20 60 209 0 
-1 176 193 194 -6 207 -209 0 
-21 16 52 177 198 -22 81 173 209 0 
-23 9 39 69 70 73 96 108 154 185 189 197 202 -24 209 0 
-25 -26 71 105 -27 182 209 0 
-25 -28 -26 71 105 -29 209 0 
-30 43 -6 207 -209 0 
-31 207 -209 0 
-32 -33 3 34 35 37 41 42 78 83 207 -209 0 
-9 23 39 69 70 73 96 108 154 185 189 197 202 -34 3 33 35 37 41 42 78 83 207 -209 0 
-12 -19 134 212 -209 0 
-35 3 33 34 37 41 42 78 83 208 -209 0 
-36 212 -209 0 
-8 13 86 95 128 136 137 147 191 203 -37 3 33 34 35 41 42 78 83 207 -209 0 
-38 208 -209 0 
-39 9 23 69 70 73 96 108 154 185 189 197 202 208 -209 0 
-19 134 208 -209 0 
-11 -40 48 212 -209 0 
-41 3 33 34 35 37 42 78 83 207 -209 0 
-42 3 33 34 35 37 41 78 83 207 -209 0 
-2 216 -43 30 212 -209 0 
-19 134 212 -209 0 
-44 207 -209 0 
-12 -45 -11 -46 208 -209 0 
-47 63 68 129 162 167 181 190 195 196 200 205 207 -209 0 
-17 -48 40 208 -209 0 
-49 213 0 
-50 208 -209 0 
-51 210 -209 0 
-14 208 -209 0 
-49 214 0 
-52 16 21 177 198 211 -209 0 
-10 61 64 67 135 139 143 184 -9 23 39 69 70 73 96 108 154 185 189 197 202 -34 3 33 35 37 41 42 78 83 207 -209 0 
-53 57 -19 134 212 -209 0 
-3 33 34 35 37 41 42 78 83 -54 212 -209 0 
-55 76 -11 -45 208 -209 0 
-8 13 86 95 128 136 137 147 191 203 209 0 
-56 212 -209 0 
-11 -32 -33 3 34 35 37 41 42 78 83 207 -209 0 
-57 53 209 0 
-14 -58 -59 208 -209 0 
-60 20 -55 76 -61 10 64 67 135 139 143 184 208 -209 0 
-12 -62 212 -209 0 
-63 47 68 129 162 167 181 190 195 196 200 205 209 0 
-64 10 61 67 135 139 143 184 207 -209 0 
-65 209 0 
-66 209 0 
-67 10 61 64 135 139 143 184 207 -209 0 
-20 60 -64 10 61 67 135 139 143 184 -68 47 63 129 162 167 181 190 195 196 200 205 207 -209 0 
-11 -38 208 -209 0 
-46 -36 208 -209 0 
-69 9 23 39 70 73 96 108 154 185 189 197 202 209 0 
-70 9 23 39 69 73 96 108 154 185 189 197 202 209 0 
-71 26 105 207 -209 0 
-37 3 33 34 35 41 42 78 83 -72 207 -209 0 
-73 9 23 39 69 70 96 108 154 185 189 197 202 207 -209 0 
-16 21 52 177 198 -74 209 0 
-75 -4 207 -209 0 
-76 55 209 0 
-77 207 -209 0 
-78 3 33 34 35 37 41 42 83 -79 209 0 
-80 215 -209 0 
-81 22 173 209 0 
-79 209 0 
-82 209 0 
-83 3 33 34 35 37 41 42 78 215 -209 0 
-84 159 209 0 
-85 89 209 0 
-86 8 13 95 128 136 137 147 191 203 209 0 
-87 209 0 
-78 3 33 34 35 37 41 42 83 215 -209 0 
-9 23 39 69 70 73 96 108 154 185 189 197 202 -20 60 -34 3 33 35 37 41 42 78 83 207 -209 0 
-45 212 -209 0 
-54 212 -209 0 
-2 216 212 -209 0 
-45 208 -209 0 
-40 48 -19 134 212 -209 0 
-3 33 34 35 37 41 42 78 83 -56 212 -209 0 
-88 216 -2 0 
-89 85 209 0 
-69 9 23 39 70 73 96 108 154 185 189 197 202 -90 5 92 144 150 -2 216 207 -209 0 
-79 208 -209 0 
-91 141 -92 5 90 144 150 -93 209 0 
-69 9 23 39 70 73 96 108 154 185 189 197 202 -79 -74 209 0 
-94 -74 209 0 
-20 60 -95 8 13 86 128 136 137 147 191 203 207 -209 0 
-45 -53 57 -11 -46 208 -209 0 
-57 53 -95 8 13 86 128 136 137 147 191 203 207 -209 0 
-60 20 -88 -39 9 23 69 70 73 96 108 154 185 189 197 202 209 0 
-91 141 -92 5 90 144 150 -85 89 -74 209 0 
-96 9 23 39 69 70 73 108 154 185 189 197 202 -74 209 0 
-97 209 0 
-98 209 0 
-99 209 0 
-100 209 0 
-101 -102 209 0 
-103 18 121 130 165 207 -209 0 
-22 81 173 -6 209 0 
-21 16 52 177 198 -104 209 0 
-25 -105 26 71 -106 209 0 
-10 61 64 67 135 139 143 184 209 0 
-107 207 -209 0 
-108 9 23 39 69 70 73 96 154 185 189 197 202 -6 209 0 
-94 209 0 
-109 169 206 207 -209 0 
-110 -6 207 -209 0 
-111 -6 209 0 
-112 209 0 
-113 209 0 
-114 164 209 0 
-20 60 -70 9 23 39 69 73 96 108 154 185 189 197 202 -6 207 -209 0 
-91 141 -6 209 0 
-115 209 0 
-20 60 -70 9 23 39 69 73 96 108 154 185 189 197 202 -5 90 92 144 150 -6 207 -209 0 
-113 209 0 
-1 176 193 194 207 -209 0 
-116 217 -209 0 
-117 215 -209 0 
-118 207 -209 0 
-119 168 218 -209 0 
-120 158 209 0 
-121 18 103 130 165 -122 207 -209 0 
-123 209 0 
-19 134 -124 -125 208 -209 0 
-126 209 0 
-127 209 0 
-128 8 13 86 95 136 137 147 191 203 209 0 
-129 47 63 68 162 167 181 190 195 196 200 205 207 -209 0 
-39 9 23 69 70 73 96 108 154 185 189 197 202 209 0 
-130 18 103 121 165 -131 209 0 
-132 -133 145 209 0 
-134 19 208 -209 0 
-36 -54 -11 -12 -46 208 -209 0 
-20 60 -34 3 33 35 37 41 42 78 83 207 -209 0 
-40 48 212 -209 0 
-56 208 -209 0 
-32 -34 3 33 35 37 41 42 78 83 207 -209 0 
-36 -134 19 208 -209 0 
-11 -12 -40 48 -36 208 -209 0 
-135 10 61 64 67 139 143 184 212 -209 0 
-45 -11 -12 -46 208 -209 0 
-11 -12 -45 -2 216 208 -209 0 
-136 8 13 86 95 128 137 147 191 203 208 -209 0 
-137 8 13 86 95 128 136 147 191 203 -138 157 188 209 0 
-70 9 23 39 69 73 96 108 154 185 189 197 202 -74 209 0 
-91 141 -139 10 61 64 67 135 143 184 214 0 
-21 16 52 177 198 -140 -141 91 207 -209 0 
-21 16 52 177 198 214 0 
-140 208 -209 0 
-21 16 52 177 198 -134 19 214 0 
-21 16 52 177 198 209 0 
-142 -19 134 212 -209 0 
-143 10 61 64 67 135 139 184 207 -209 0 
-40 48 -3 33 34 35 37 41 42 78 83 208 -209 0 
-112 207 -209 0 
-54 -3 33 34 35 37 41 42 78 83 208 -209 0 
-45 -144 5 90 92 150 -46 -145 133 208 -209 0 
-16 21 52 177 198 215 -209 0 
-146 215 -209 0 
-12 -63 47 68 129 162 167 181 190 195 196 200 205 207 -209 0 
-57 53 -7 215 -209 0 
-54 -45 212 -209 0 
-53 57 -55 76 -19 134 208 -209 0 
-147 8 13 86 95 128 136 137 191 203 207 -209 0 
-65 -141 91 207 -209 0 
-40 48 -45 212 -209 0 
-36 -19 134 212 -209 0 
-9 23 39 69 70 73 96 108 154 185 189 197 202 -63 47 68 129 162 167 181 190 195 196 200 205 -34 3 33 35 37 41 42 78 83 207 -209 0 
-96 9 23 39 69 70 73 108 154 185 189 197 202 -79 -74 209 0 
-114 164 209 0 
-31 207 -209 0 
-148 -5 90 92 144 150 -2 216 -74 207 -209 0 
-149 -150 5 90 92 144 -2 216 -74 207 -209 0 
-97 -141 91 -17 207 -209 0 
-66 -141 91 -17 207 -209 0 
-137 8 13 86 95 128 136 147 191 203 -151 219 -209 0 
-98 -141 91 -17 207 -209 0 
-152 209 0 
-65 219 -209 0 
-153 220 -209 0 
-154 9 23 39 69 70 73 96 108 185 189 197 202 208 -209 0 
-24 209 0 
-155 -69 9 23 39 70 73 96 108 154 185 189 197 202 207 -209 0 
-46 -156 208 -209 0 
-11 -23 9 39 69 70 73 96 108 154 185 189 197 202 -157 138 188 221 -209 0 
-55 76 -156 208 -209 0 
-143 10 61 64 67 135 139 184 -157 138 188 222 -209 0 
-158 120 209 0 
-159 84 209 0 
-160 171 209 0 
-8 13 86 95 128 136 137 147 191 203 207 -209 0 
-161 209 0 
-162 47 63 68 129 167 181 190 195 196 200 205 207 -209 0 
-163 209 0 
-164 114 209 0 
-165 18 103 121 130 209 0 
-55 76 -107 207 -209 0 
-155 -5 90 92 144 150 207 -209 0 
-131 209 0 
-166 207 -209 0 
-11 -12 -19 134 208 -209 0 
-68 47 63 129 162 167 181 190 195 196 200 205 207 -209 0 
-57 53 -68 47 63 129 162 167 181 190 195 196 200 205 207 -209 0 
-55 76 -64 10 61 67 135 139 143 184 -68 47 63 129 162 167 181 190 195 196 200 205 207 -209 0 
-167 47 63 68 129 162 181 190 195 196 200 205 -36 208 -209 0 
-149 -79 -74 209 0 
-4 -2 216 -74 207 -209 0 
-168 119 209 0 
-169 109 206 207 -209 0 
-91 141 -92 5 90 144 150 -6 209 0 
-149 -74 209 0 
-4 -5 90 92 144 150 -170 207 -209 0 
-171 160 209 0 
-4 -74 207 -209 0 
-172 -173 22 81 207 -209 0 
-174 -173 22 81 207 -209 0 
-175 208 -209 0 
-70 9 23 39 69 73 96 108 154 185 189 197 202 -79 -74 209 0 
-115 209 0 
-159 84 209 0 
-176 1 193 194 209 0 
-177 16 21 52 198 210 -209 0 
-175 223 -209 0 
-177 16 21 52 198 211 -209 0 
-1 176 193 194 209 0 
-178 -6 207 -209 0 
-4 -6 -2 216 207 -209 0 
-36 -54 208 -209 0 
-11 -36 -3 33 34 35 37 41 42 78 83 208 -209 0 
-25 208 -209 0 
-148 -5 90 92 144 150 -2 216 -179 -74 207 -209 0 
-180 207 -209 0 
-156 -91 141 212 -209 0 
-11 -19 134 -181 47 63 68 129 162 167 190 195 196 200 205 208 -209 0 
-45 -156 -46 208 -209 0 
-45 -91 141 212 -209 0 
-16 21 52 177 198 221 -209 0 
-76 55 -182 27 218 -209 0 
-183 224 -209 0 
-175 -128 8 13 86 95 136 137 147 191 203 208 -209 0 
-65 221 -209 0 
-184 10 61 64 67 135 139 143 209 0 
-185 9 23 39 69 70 73 96 108 154 189 197 202 208 -209 0 
-186 207 -209 0 
-187 225 -209 0 
-13 8 86 95 128 136 137 147 191 203 -188 138 157 215 -209 0 
-60 20 -13 8 86 95 128 136 137 147 191 203 207 -209 0 
-10 61 64 67 135 139 143 184 -33 3 34 35 37 41 42 78 83 -189 9 23 39 69 70 73 96 108 154 185 197 202 207 -209 0 
-37 3 33 34 35 41 42 78 83 -63 47 68 129 162 167 181 190 195 196 200 205 -69 9 23 39 70 73 96 108 154 185 189 197 202 207 -209 0 
-175 -190 47 63 68 129 162 167 181 195 196 200 205 207 -209 0 
-191 8 13 86 95 128 136 137 147 203 -192 219 -209 0 
-193 1 176 194 207 -209 0 
-194 1 176 193 207 -209 0 
-60 20 -2 216 212 -209 0 
-135 10 61 64 67 139 143 184 208 -209 0 
-38 -46 -144 5 90 92 150 208 -209 0 
-195 47 63 68 129 162 167 181 190 196 200 205 212 -209 0 
-53 57 223 -209 0 
-10 61 64 67 135 139 143 184 -9 23 39 69 70 73 96 108 154 185 189 197 202 -57 53 -34 3 33 35 37 41 42 78 83 207 -209 0 
-12 -196 47 63 68 129 162 167 181 190 195 200 205 212 -209 0 
-54 -142 212 -209 0 
-56 -40 48 212 -209 0 
-45 -46 -11 -53 57 -40 48 208 -209 0 
-175 -51 -19 134 212 -209 0 
-197 9 23 39 69 70 73 96 108 154 185 189 202 -198 16 21 52 177 -46 208 -209 0 
-36 -45 212 -209 0 
-199 -200 47 63 68 129 162 167 181 190 195 196 205 207 -209 0 
-146 -200 47 63 68 129 162 167 181 190 195 196 205 207 -209 0 
-201 -202 9 23 39 69 70 73 96 108 154 185 189 197 207 -209 0 
-203 8 13 86 95 128 136 137 147 191 -36 -40 48 -2 216 208 -209 0 
-56 -54 212 -209 0 
-55 76 -19 134 212 -209 0 
-60 20 -45 212 -209 0 
-53 57 -36 212 -209 0 
-153 208 -209 0 
-199 -204 207 -209 0 
-45 -46 208 -209 0 
-205 47 63 68 129 162 167 181 190 195 196 200 -39 9 23 69 70 73 96 108 154 185 189 197 202 209 0 
-2 216 -206 109 169 212 -209 0 
-12 -54 -45 212 -209 0 
